networks/zoo_20_42/zoo_20_42-lower.sol
<?xml version = "1.0" encoding="UTF-8" standalone="yes"?>
<CPLEXSolution version="1.2">
 <header
   problemName="networks/zoo_20_42/zoo_20_42-lower.lp"
   solutionName="incumbent"
   solutionIndex="-1"
   objectiveValue="7"
   solutionTypeValue="3"
   solutionTypeString="primal"
   solutionStatusValue="101"
   solutionStatusString="integer optimal solution"
   solutionMethodString="mip"
   primalFeasible="1"
   dualFeasible="1"
   MIPNodes="0"
   MIPIterations="0"
   writeLevel="3"/>
 <quality
   epInt="1.0000000000000001e-05"
   epRHS="9.9999999999999995e-07"
   maxIntInfeas="0"
   maxPrimalInfeas="0"
   maxX="1"
   maxSlack="1"/>
 <variables>
  <variable name="Y(1,2)" index="1" value="1"/>
  <variable name="Y(2,3)" index="16" value="1"/>
  <variable name="Y(3,4)" index="31" value="1"/>
  <variable name="Y(4,5)" index="46" value="1"/>
  <variable name="Y(5,6)" index="61" value="1"/>
  <variable name="Y(6,7)" index="76" value="1"/>
  <variable name="Y(7,1)" index="84" value="1"/>
  <variable name="X(1,4,1)" index="588" value="1"/>
  <variable name="X(1,14,7)" index="636" value="1"/>
  <variable name="X(2,4,7)" index="678" value="1"/>
  <variable name="X(2,15,1)" index="714" value="1"/>
  <variable name="X(3,4,13)" index="768" value="1"/>
  <variable name="X(3,16,2)" index="799" value="1"/>
  <variable name="X(4,1,7)" index="846" value="1"/>
  <variable name="X(4,2,1)" index="882" value="1"/>
  <variable name="X(4,3,2)" index="925" value="1"/>
  <variable name="X(4,5,4)" index="969" value="1"/>
  <variable name="X(4,6,5)" index="1012" value="1"/>
  <variable name="X(4,7,6)" index="1055" value="1"/>
  <variable name="X(4,17,3)" index="1094" value="1"/>
  <variable name="X(5,4,25)" index="1158" value="1"/>
  <variable name="X(5,18,4)" index="1179" value="1"/>
  <variable name="X(6,4,31)" index="1248" value="1"/>
  <variable name="X(6,19,5)" index="1264" value="1"/>
  <variable name="X(7,4,37)" index="1338" value="1"/>
  <variable name="X(7,20,6)" index="1349" value="1"/>
 </variables>
</CPLEXSolution>
